3 3 2
30 0 20 2 193 0 69 1 91 2 40 0 20 2 32 1 93 2 7 1 136 0 151 1 56 0 189 1 188 2 102 0 140 2 118 0 129 1 90 0 178 2 158 1 67 0 59 1 156 2 78 0 18 1 68 2 126 0 175 2 195 
30 1 52 0 54 1 145 2 174 1 114 0 35 2 103 1 174 2 52 0 123 1 149 2 192 1 132 2 73 0 38 2 106 1 165 2 58 0 168 1 88 0 84 2 118 1 12 2 26 0 115 2 71 0 74 2 171 0 183 2 113 
30 0 147 1 57 0 195 1 5 0 137 2 8 0 161 2 54 0 188 1 56 2 17 1 190 0 21 1 131 0 34 2 16 0 136 2 159 0 3 1 23 0 56 2 83 0 176 1 40 2 10 1 82 2 112 1 90 0 154 1 12 

-------------
